n_trains = 40;
n_tracks = 10;
tracks = [{1, 2, 3, 4, 5},{6, 7, 8, 9, 10},{11, 12, 13, 14, 15},{16, 17, 18, 19, 20},{21, 22},{23, 24, 25, 26, 27, 28, 29, 30},{31, 32, 33},{34, 35, 36},{37, 38, 39},{40}];
arrival_order = [1, 2, 3, 4, 5, 6, 7, 8, 9, 10, 11, 12, 13, 14, 15, 16, 17, 18, 19, 20, 21, 22, 23, 24, 25, 26, 27, 28, 29, 30, 31, 32, 33, 34, 35, 36, 37, 38, 39, 40];
departure_order = [37, 6, 28, 36, 4, 10, 22, 2, 17, 19, 27, 8, 23, 34, 9, 32, 12, 31, 11, 20, 21, 3, 13, 25, 40, 35, 30, 15, 39, 29, 24, 5, 14, 18, 38, 33, 16, 7, 1, 26];
